(set-logic HORN)
(declare-fun state (Int Int (Array Int Int) Int Int Bool Bool Bool Int Int) Bool)
(assert (forall ((|A_6| Int) (|B_5| Int) (|C_5| (Array Int Int)) (|D_5| Int) (|.y.5| Int) (|.loc.6| Bool) (|.loc.7| Bool) (|.loc.8| Bool) (|H_6| Int) (|H_7| Int) (|I_5| Int) (|.x.13| Int) (|.loc.10| Bool) (|.loc.12| Bool) (|.loc.11| Bool) (|.y.9| Int) (|.x.12| (Array Int Int)) (|.x.11| Int) (|.xtv.1| Int) (|.xpv.1| Int)) (=> (and (and (not .loc.6) (not .loc.7)) (not .loc.8)) (state |A_6| |B_5| |C_5| |D_5| |.y.5| |.loc.6| |.loc.7| |.loc.8| |H_6| |H_7|))))
(assert (forall ((|A_6| Int) (|B_5| Int) (|C_5| (Array Int Int)) (|D_5| Int) (|.y.5| Int) (|.loc.6| Bool) (|.loc.7| Bool) (|.loc.8| Bool) (|H_6| Int) (|H_7| Int) (|I_5| Int) (|.x.13| Int) (|.loc.10| Bool) (|.loc.12| Bool) (|.loc.11| Bool) (|.y.9| Int) (|.x.12| (Array Int Int)) (|.x.11| Int) (|.xtv.1| Int) (|.xpv.1| Int)) (=> (and (state |A_6| |B_5| |C_5| |D_5| |.y.5| |.loc.6| |.loc.7| |.loc.8| |H_6| |H_7|) (let ((.def_20 (not .loc.6))) (let ((.def_21 (not .loc.7))) (let ((.def_23 (not .loc.8))) (let ((.def_30 (<= D_5 B_5))) (let ((.def_55 (<= A_6 0))) (let ((.def_56 (not .def_55))) (let ((.def_62 (or .def_55 (not (<= H_6 0))))) (let ((.def_67 (not .loc.10))) (let ((.def_71 (not .loc.11))) (let ((.def_79 (not .loc.12))) (let ((.def_82 (= .y.9 0))) (let ((.def_84 (= D_5 I_5))) (let ((.def_88 (= C_5 .x.12))) (let ((.def_92 (not .def_30))) (let ((.def_105 (= (+ B_5 (* (- 1) .y.9)) (- 1)))) (let ((.def_109 (= (+ A_6 (+ B_5 (* (- 1) H_6))) 0))) (let ((.def_139 (= A_6 .x.11))) (or (or (and (or (or (or (and (or (and (or (and .def_23 (and .loc.7 (and .loc.6 (and (= I_5 0) (and (= D_5 .x.13) .def_30))))) (and (= .y.5 .x.13) (and (and (= (+ D_5 (* (- 1) I_5)) (- 1)) (and (= (+ A_6 (+ D_5 (* (- 1) H_6))) 0) (and (and (not (<= .y.5 D_5)) (and (= (select C_5 H_6) 44) (and .def_20 (and .loc.8 .def_21)))) .def_56))) .def_62))) (and (and .def_67 .loc.12) .def_71)) (and (and (and (and .def_20 (and .loc.11 (and .loc.10 (and .def_23 (and .loc.7 .def_30))))) .def_79) .def_82) .def_84)) .def_88) (and (and (and (= .x.12 (store C_5 H_6 44)) (and .def_84 (and .def_79 (and .def_62 (and .def_56 (and .loc.11 (and .loc.10 (and .def_23 (and .loc.7 (and .loc.6 .def_92)))))))))) .def_105) .def_109)) (and .def_84 (and .def_82 (and .def_79 (and .def_21 (and .def_67 (and .loc.11 (and .def_23 (and .loc.6 (and .def_30 .def_88)))))))))) (and (= .x.12 (store C_5 H_6 43)) (and .def_109 (and .def_105 (and .def_84 (and .def_79 (and .def_62 (and .def_56 (and .def_20 (and .def_67 (and .loc.11 (and .def_23 (and .loc.7 .def_92))))))))))))) .def_139) (and (not (<= .x.11 0)) (and (not (<= I_5 0)) (and .def_82 (and .def_79 (and .def_20 (and .def_21 (and .def_71 (and .def_23 .loc.10))))))))) (and (= .x.12 (store C_5 H_6 42)) (and .def_109 (and .def_105 (and .def_84 (and .def_79 (and .def_62 (and .def_56 (and .def_21 (and .def_71 (and .loc.10 (and .def_23 (and .loc.6 (and .def_92 .def_139)))))))))))))))))))))))))))))))) (state |.x.11| |.y.9| |.x.12| |I_5| |.x.13| |.loc.10| |.loc.11| |.loc.12| |.xtv.1| |.xpv.1|))))
(assert (forall ((|A_6| Int) (|B_5| Int) (|C_5| (Array Int Int)) (|D_5| Int) (|.y.5| Int) (|.loc.6| Bool) (|.loc.7| Bool) (|.loc.8| Bool) (|H_6| Int) (|H_7| Int) (|I_5| Int) (|.x.13| Int) (|.loc.10| Bool) (|.loc.12| Bool) (|.loc.11| Bool) (|.y.9| Int) (|.x.12| (Array Int Int)) (|.x.11| Int) (|.xtv.1| Int) (|.xpv.1| Int)) (=> (state |A_6| |B_5| |C_5| |D_5| |.y.5| |.loc.6| |.loc.7| |.loc.8| |H_6| |H_7|) (let ((.def_55 (<= A_6 0))) (not (and (and .loc.8 (and (not .loc.6) (not .loc.7))) (and (and (not (= (select C_5 H_7) 44)) (and (and (not (<= .y.5 D_5)) (not .def_55)) (= (+ A_6 (+ D_5 (* (- 1) H_7))) 0))) (or .def_55 (not (<= H_7 0))))))))))
(check-sat)
